  50 

  29   6   6   2  39   5  46  23  19  13   2  18  48  18  27  38  29  40  13  33   8  37  19  31  30  37  13  28  16  11  43  16  35  36  21  40   7  28  15  45   9   8  26  12  19  19   6  18  26  35

 220

  17   7  17   6  21  22  17  22  12  10  20  19  17  16  13   4  16  20   6  22   8   3   2  16  13  19  24  17  24  25   7  19   7   2  25  18  23  11  11  12  25  15  24  21  16   4  22   1  22  18

